#### examples/03_mos2_monolayer_optcell —— 单层 MoS₂ · 面内晶胞优化（OPTCELL） ####
# 由 examples/_build_examples.py **现场生成**（不是静态文件，避免过期）。
# 生成后会自动跑 scripts/validate.py 校验。
SYSTEM = 03_mos2_monolayer_optcell

#### 起始参数 I/O ####
ISTART = 0
ICHARG = 2
LWAVE  = .FALSE.
LCHARG = .FALSE.

#### 电子步 ####
ENCUT  = 300.0
PREC   = Normal
EDIFF  = 1e-06
NELM   = 300
NELMIN = 5
# 展宽：绝缘体用 Gaussian
ISMEAR = 0
SIGMA  = 0.05
LREAL  = .FALSE.

#### 离子步 ####
NSW    = 200
IBRION = 2
ISIF   = 3
POTIM  = 0.2
EDIFFG = -0.01

#### 并行（**与站点相关，请自己定**）####
# NCORE = <<<请填写>>>
# KPAR  = <<<请填写>>>
