Ag(111) 3x3 slab, 3 layers, bottom layer fixed
1.0
   8.6820000000   0.0000000000   0.0000000000
   4.3410000000   7.5186960000   0.0000000000
   0.0000000000   0.0000000000  25.0000000000
Ag
27
Selective dynamics
Direct
   0.0000000000   0.0000000000   0.3200000000   F   F   F
   0.3333333333   0.3333333333   0.3200000000   F   F   F
   0.6666666667   0.6666666667   0.3200000000   F   F   F
   0.3333333333   0.0000000000   0.3200000000   F   F   F
   0.6666666667   0.3333333333   0.3200000000   F   F   F
   0.0000000000   0.6666666667   0.3200000000   F   F   F
   0.6666666667   0.0000000000   0.3200000000   F   F   F
   0.0000000000   0.3333333333   0.3200000000   F   F   F
   0.3333333333   0.6666666667   0.3200000000   F   F   F
   0.0000000000   0.0000000000   0.4200000000   T   T   T
   0.3333333333   0.3333333333   0.4200000000   T   T   T
   0.6666666667   0.6666666667   0.4200000000   T   T   T
   0.3333333333   0.0000000000   0.4200000000   T   T   T
   0.6666666667   0.3333333333   0.4200000000   T   T   T
   0.0000000000   0.6666666667   0.4200000000   T   T   T
   0.6666666667   0.0000000000   0.4200000000   T   T   T
   0.0000000000   0.3333333333   0.4200000000   T   T   T
   0.3333333333   0.6666666667   0.4200000000   T   T   T
   0.0000000000   0.0000000000   0.5200000000   T   T   T
   0.3333333333   0.3333333333   0.5200000000   T   T   T
   0.6666666667   0.6666666667   0.5200000000   T   T   T
   0.3333333333   0.0000000000   0.5200000000   T   T   T
   0.6666666667   0.3333333333   0.5200000000   T   T   T
   0.0000000000   0.6666666667   0.5200000000   T   T   T
   0.6666666667   0.0000000000   0.5200000000   T   T   T
   0.0000000000   0.3333333333   0.5200000000   T   T   T
   0.3333333333   0.6666666667   0.5200000000   T   T   T
