#### examples/05_bad_inputs_demo —— **故意写坏的输入** · 演示校验器能抓什么 ####
# 由 examples/_build_examples.py **现场生成**（不是静态文件，避免过期）。
# 生成后会自动跑 scripts/validate.py 校验。
SYSTEM = 05_bad_inputs_demo

#### 起始参数 I/O ####
ISTART = 0
ICHARG = 2
LWAVE  = .FALSE.
LCHARG = .FALSE.

#### 电子步 ####
ENCUT  = 80.0
PREC   = Normal
EDIFF  = 1e-06
NELM   = 300
NELMIN = 5
# 展宽：绝缘体用 Gaussian
ISMEAR = 0
SIGMA  = 0.05
LREAL  = .FALSE.

#### 离子步 ####
NSW    = 0
IBRION = -1

#### 并行（**与站点相关，请自己定**）####
# NCORE = <<<请填写>>>
# KPAR  = <<<请填写>>>


#### 下面四行是**故意写坏的**，用来演示校验器（不要照抄）####
# ① 关键字拼错 —— 会被 VASP 静默忽略
ENCUTT = 300
# ② 关键字发到了不属于它的文件（Selective dynamics 属于 POSCAR）
Selective dynamics = .TRUE.
# ③ 值里混进说明文字（抄 wiki 时把 # 丢了）
ISTART = 1   job   : 0-new  1-cont  2-samecut
# ④ 圆括号说明里含分号 —— 圆括号不是注释，; 是语句分隔符
ALGO = Normal   (Electronic Minimisation Algorithm; ALGO=58)
